
  16    0


   0  11 2 3 4 5 6 7 8 12 13 14 15 
   7   2 11 9 
   2   2 10 9 
   6   1 11 
   5   1 10 
   9   1 10 
  10   1 9 
   4   1 9 
   5   1 16
   1   1 16
   8   1 16
   4   1 16
   5   1 16
   7   1 16
   1   1 16
   0   0 
